%chk=SBF91.chk
%mem=48MW
%nproc=2
# UBPW91/cc-pVDZ opt guess=(mix,always)

Simple diradical with benzene using UBPW91

0 3
 C
 C                  1              B1
 C                  2              B2    1              A1
 C                  3              B3    2              A2    1              D1
 C                  4              B4    3              A3    2              D2
 C                  5              B5    4              A4    3              D3
 H                  1              B6    2              A5    3              D4
 H                  2              B7    1              A6    6              D5
 C                  3              B8    2              A7    1              D6
 C                  4              B9    3              A8    2              D7
 H                  5             B10    4              A9    3              D8
 H                  6             B11    5             A10    4              D9
 C                 10             B12    4             A11    3             D10
 C                  9             B13    3             A12    2             D11
 H                 13             B14   10             A13    4             D12
 H                 14             B15    9             A14    3             D13

   B1             1.37280100
   B2             1.42201123
   B3             1.41886767
   B4             1.42171947
   B5             1.37334014
   B6             1.09999546
   B7             1.10033209
   B8             1.42203394
   B9             1.42208345
   B10            1.10020861
   B11            1.09995307
   B12            1.37286103
   B13            1.37294087
   B14            1.09996269
   B15            1.09994644
   A1           120.50994916
   A2           119.09589823
   A3           119.21032595
   A4           120.45591024
   A5           120.64768218
   A6           120.88319677
   A7           121.70036391
   A8           119.05963413
   A9           118.64414245
   A10          120.64565435
   A11          120.54905064
   A12          120.49677123
   A13          120.64917183
   A14          120.68504056
   D1             0.01709885
   D2            -0.00955808
   D3            -0.00403687
   D4           179.99515646
   D5          -179.99714111
   D6          -179.98754519
   D7           179.99468699
   D8          -179.98782799
   D9          -180.00000000
   D10            0.00000000
   D11         -180.00000000
   D12          179.98386937
   D13          180.00000000

